treewidth/data/TutteGraph.gr
p tw 46 69
1 43
1 15
1 31
2 13
2 46
2 28
13 24
13 6
24 35
24 9
35 42
35 7
42 43
42 8
43 44
44 45
44 8
45 46
45 4
46 5
3 4
3 7
3 8
4 5
5 6
6 7
9 10
9 18
10 11
10 22
11 12
11 26
12 14
12 23
14 15
14 25
15 16
16 17
16 25
17 18
17 20
18 21
19 20
19 23
19 25
20 21
21 22
22 23
26 27
26 34
27 28
27 39
28 29
29 30
29 40
30 31
30 41
31 32
32 33
32 41
33 34
33 37
34 38
36 37
36 40
36 41
37 38
38 39
39 40
