treewidth/data/TutteGraph.td
c width = 5, time = 0.140010
s td 33 6 46
b 1 2 26 27 28 29 39
b 2 1 2 24 26 29 39
b 3 1 2 4 7 24 44
b 4 1 4 7 24 42 44
b 5 3 4 7 8 42 44
b 6 7 24 35 42
b 7 1 42 43 44
b 8 2 4 7 24 44 46
b 9 2 4 6 7 24 46
b 10 4 5 6 46
b 11 2 6 13 24
b 12 4 44 45 46
b 13 1 12 18 22 24 26
b 14 10 12 18 22 24 26
b 15 9 10 18 24
b 16 10 11 12 26
b 17 1 12 16 18 19 22
b 18 1 12 14 16 19
b 19 1 14 15 16
b 20 14 16 19 25
b 21 16 18 19 20 22
b 22 16 17 18 20
b 23 18 20 21 22
b 24 12 19 22 23
b 25 1 26 29 33 36 39
b 26 1 29 33 36 41
b 27 1 29 31 33 41
b 28 29 30 31 41
b 29 31 32 33 41
b 30 26 33 36 38 39
b 31 26 33 34 38
b 32 33 36 37 38
b 33 29 36 39 40
4 5
4 6
4 7
3 4
9 10
9 11
8 9
8 12
3 8
2 3
14 15
14 16
13 14
18 19
18 20
17 18
21 22
21 23
17 21
17 24
13 17
2 13
27 28
27 29
26 27
25 26
30 31
30 32
25 30
25 33
2 25
1 2
